p cnf 43 80
-6 -1 0
6 0
-7 -1 0
7 0
-8 -1 0
8 0
-9 2 0
9 0
-10 2 0
10 0
-11 2 0
11 0
-12 -1 0
12 0
-13 -1 0
13 0
-14 2 0
14 0
-15 2 0
15 0
-16 -1 0
16 0
-17 -1 0
17 0
-18 -1 0
-18 3 0
-19 1 0
-19 -3 0
18 19 0
-20 3 0
20 0
-21 2 0
-21 3 0
21 0
-22 2 0
22 0
-23 2 0
23 0
-24 3 0
24 0
-25 3 0
25 0
-26 4 0
26 0
-27 4 0
27 0
-28 3 0
-28 4 0
28 0
-29 3 0
29 0
-30 -3 0
-30 5 0
-31 3 0
-31 -5 0
30 31 0
-32 5 0
32 0
-33 5 0
33 0
-34 4 0
34 0
-35 4 0
35 0
-36 5 0
36 0
-37 5 0
37 0
-38 4 0
38 0
-39 4 0
39 0
-40 4 0
40 0
-41 5 0
41 0
-42 5 0
42 0
-43 5 0
43 0
